c colouring generated by benchmark framework
p edge 1225 2380
v 1 1
v 2 0
v 3 1
v 4 0
v 5 1
v 6 0
v 7 1
v 8 0
v 9 1
v 10 0
v 11 1
v 12 0
v 13 1
v 14 0
v 15 1
v 16 0
v 17 1
v 18 0
v 19 1
v 20 0
v 21 1
v 22 0
v 23 1
v 24 0
v 25 1
v 26 0
v 27 1
v 28 0
v 29 1
v 30 0
v 31 1
v 32 0
v 33 2
v 34 1
v 35 0
v 36 0
v 37 1
v 38 0
v 39 1
v 40 0
v 41 1
v 42 0
v 43 1
v 44 0
v 45 1
v 46 0
v 47 1
v 48 0
v 49 1
v 50 0
v 51 1
v 52 0
v 53 1
v 54 0
v 55 1
v 56 0
v 57 1
v 58 0
v 59 1
v 60 0
v 61 1
v 62 0
v 63 1
v 64 0
v 65 1
v 66 0
v 67 2
v 68 1
v 69 0
v 70 1
v 71 1
v 72 0
v 73 1
v 74 0
v 75 1
v 76 0
v 77 1
v 78 0
v 79 1
v 80 0
v 81 1
v 82 0
v 83 1
v 84 0
v 85 1
v 86 0
v 87 1
v 88 0
v 89 1
v 90 0
v 91 1
v 92 0
v 93 1
v 94 0
v 95 1
v 96 0
v 97 1
v 98 0
v 99 1
v 100 0
v 101 1
v 102 0
v 103 3
v 104 2
v 105 0
v 106 0
v 107 1
v 108 0
v 109 1
v 110 0
v 111 1
v 112 3
v 113 2
v 114 3
v 115 2
v 116 3
v 117 2
v 118 3
v 119 2
v 120 3
v 121 2
v 122 3
v 123 2
v 124 3
v 125 2
v 126 3
v 127 2
v 128 3
v 129 2
v 130 0
v 131 1
v 132 0
v 133 1
v 134 0
v 135 1
v 136 0
v 137 1
v 138 0
v 139 1
v 140 2
v 141 1
v 142 0
v 143 1
v 144 0
v 145 1
v 146 2
v 147 0
v 148 1
v 149 0
v 150 1
v 151 0
v 152 1
v 153 0
v 154 1
v 155 0
v 156 1
v 157 0
v 158 1
v 159 0
v 160 1
v 161 0
v 162 1
v 163 0
v 164 1
v 165 2
v 166 0
v 167 1
v 168 0
v 169 1
v 170 0
v 171 1
v 172 0
v 173 1
v 174 0
v 175 1
v 176 0
v 177 1
v 178 0
v 179 1
v 180 0
v 181 1
v 182 2
v 183 0
v 184 1
v 185 0
v 186 1
v 187 0
v 188 1
v 189 0
v 190 1
v 191 0
v 192 1
v 193 0
v 194 1
v 195 0
v 196 1
v 197 0
v 198 1
v 199 2
v 200 0
v 201 1
v 202 0
v 203 1
v 204 0
v 205 1
v 206 0
v 207 1
v 208 0
v 209 1
v 210 0
v 211 1
v 212 0
v 213 1
v 214 0
v 215 1
v 216 0
v 217 1
v 218 2
v 219 0
v 220 1
v 221 0
v 222 1
v 223 0
v 224 1
v 225 0
v 226 1
v 227 0
v 228 1
v 229 0
v 230 1
v 231 0
v 232 1
v 233 0
v 234 1
v 235 3
v 236 2
v 237 3
v 238 2
v 239 3
v 240 2
v 241 3
v 242 2
v 243 3
v 244 2
v 245 1
v 246 0
v 247 3
v 248 2
v 249 3
v 250 2
v 251 3
v 252 2
v 253 0
v 254 1
v 255 0
v 256 1
v 257 0
v 258 1
v 259 0
v 260 1
v 261 0
v 262 1
v 263 0
v 264 1
v 265 0
v 266 1
v 267 0
v 268 1
v 269 0
v 270 1
v 271 0
v 272 1
v 273 0
v 274 1
v 275 0
v 276 1
v 277 0
v 278 1
v 279 0
v 280 2
v 281 2
v 282 1
v 283 0
v 284 1
v 285 0
v 286 1
v 287 0
v 288 1
v 289 0
v 290 1
v 291 0
v 292 1
v 293 0
v 294 1
v 295 0
v 296 1
v 297 0
v 298 1
v 299 0
v 300 1
v 301 0
v 302 1
v 303 0
v 304 1
v 305 0
v 306 1
v 307 0
v 308 1
v 309 0
v 310 1
v 311 0
v 312 1
v 313 0
v 314 1
v 315 0
v 316 0
v 317 2
v 318 3
v 319 2
v 320 3
v 321 2
v 322 3
v 323 2
v 324 3
v 325 2
v 326 3
v 327 2
v 328 3
v 329 2
v 330 3
v 331 0
v 332 1
v 333 0
v 334 1
v 335 0
v 336 1
v 337 0
v 338 1
v 339 0
v 340 1
v 341 0
v 342 1
v 343 0
v 344 1
v 345 0
v 346 1
v 347 0
v 348 1
v 349 0
v 350 1
v 351 1
v 352 0
v 353 1
v 354 0
v 355 1
v 356 0
v 357 1
v 358 0
v 359 1
v 360 0
v 361 1
v 362 0
v 363 1
v 364 0
v 365 1
v 366 2
v 367 3
v 368 2
v 369 3
v 370 2
v 371 3
v 372 2
v 373 3
v 374 2
v 375 3
v 376 2
v 377 3
v 378 2
v 379 3
v 380 2
v 381 3
v 382 2
v 383 3
v 384 2
v 385 0
v 386 0
v 387 1
v 388 0
v 389 1
v 390 0
v 391 1
v 392 0
v 393 1
v 394 0
v 395 1
v 396 0
v 397 1
v 398 0
v 399 1
v 400 0
v 401 1
v 402 0
v 403 1
v 404 0
v 405 1
v 406 0
v 407 1
v 408 0
v 409 1
v 410 0
v 411 1
v 412 0
v 413 1
v 414 0
v 415 1
v 416 0
v 417 1
v 418 0
v 419 1
v 420 2
v 421 1
v 422 0
v 423 1
v 424 0
v 425 1
v 426 0
v 427 1
v 428 0
v 429 1
v 430 0
v 431 1
v 432 0
v 433 1
v 434 0
v 435 1
v 436 0
v 437 1
v 438 0
v 439 1
v 440 0
v 441 1
v 442 0
v 443 1
v 444 0
v 445 1
v 446 0
v 447 1
v 448 0
v 449 1
v 450 0
v 451 1
v 452 0
v 453 1
v 454 0
v 455 1
v 456 0
v 457 1
v 458 0
v 459 1
v 460 0
v 461 1
v 462 0
v 463 1
v 464 0
v 465 1
v 466 0
v 467 1
v 468 0
v 469 1
v 470 0
v 471 1
v 472 0
v 473 1
v 474 0
v 475 1
v 476 0
v 477 1
v 478 0
v 479 1
v 480 0
v 481 1
v 482 0
v 483 1
v 484 0
v 485 1
v 486 0
v 487 1
v 488 0
v 489 1
v 490 0
v 491 1
v 492 0
v 493 1
v 494 0
v 495 1
v 496 0
v 497 1
v 498 2
v 499 3
v 500 2
v 501 3
v 502 2
v 503 3
v 504 2
v 505 3
v 506 2
v 507 3
v 508 2
v 509 3
v 510 2
v 511 3
v 512 2
v 513 1
v 514 0
v 515 1
v 516 0
v 517 1
v 518 0
v 519 1
v 520 0
v 521 1
v 522 2
v 523 3
v 524 2
v 525 1
v 526 0
v 527 2
v 528 4
v 529 3
v 530 2
v 531 3
v 532 2
v 533 0
v 534 1
v 535 0
v 536 1
v 537 0
v 538 1
v 539 0
v 540 1
v 541 0
v 542 1
v 543 0
v 544 1
v 545 0
v 546 1
v 547 0
v 548 2
v 549 1
v 550 0
v 551 1
v 552 0
v 553 1
v 554 0
v 555 1
v 556 2
v 557 0
v 558 1
v 559 0
v 560 2
v 561 2
v 562 1
v 563 0
v 564 1
v 565 0
v 566 1
v 567 0
v 568 1
v 569 0
v 570 1
v 571 0
v 572 1
v 573 0
v 574 1
v 575 0
v 576 1
v 577 0
v 578 1
v 579 0
v 580 1
v 581 0
v 582 3
v 583 1
v 584 0
v 585 1
v 586 0
v 587 1
v 588 0
v 589 1
v 590 3
v 591 0
v 592 1
v 593 0
v 594 1
v 595 0
v 596 1
v 597 0
v 598 1
v 599 0
v 600 1
v 601 0
v 602 1
v 603 0
v 604 1
v 605 0
v 606 1
v 607 0
v 608 1
v 609 0
v 610 1
v 611 0
v 612 1
v 613 0
v 614 1
v 615 0
v 616 1
v 617 2
v 618 0
v 619 1
v 620 0
v 621 1
v 622 0
v 623 1
v 624 0
v 625 2
v 626 1
v 627 0
v 628 1
v 629 0
v 630 1
v 631 0
v 632 1
v 633 0
v 634 1
v 635 0
v 636 1
v 637 0
v 638 1
v 639 0
v 640 1
v 641 0
v 642 1
v 643 0
v 644 1
v 645 0
v 646 1
v 647 0
v 648 1
v 649 0
v 650 1
v 651 0
v 652 1
v 653 2
v 654 3
v 655 2
v 656 3
v 657 2
v 658 3
v 659 2
v 660 1
v 661 0
v 662 1
v 663 0
v 664 1
v 665 0
v 666 1
v 667 0
v 668 1
v 669 0
v 670 1
v 671 0
v 672 1
v 673 0
v 674 1
v 675 0
v 676 1
v 677 0
v 678 1
v 679 0
v 680 1
v 681 0
v 682 1
v 683 0
v 684 1
v 685 0
v 686 1
v 687 0
v 688 1
v 689 0
v 690 1
v 691 0
v 692 1
v 693 0
v 694 1
v 695 0
v 696 1
v 697 0
v 698 1
v 699 0
v 700 1
v 701 0
v 702 1
v 703 0
v 704 1
v 705 0
v 706 1
v 707 0
v 708 1
v 709 0
v 710 1
v 711 0
v 712 1
v 713 0
v 714 1
v 715 0
v 716 1
v 717 0
v 718 1
v 719 0
v 720 1
v 721 0
v 722 1
v 723 0
v 724 1
v 725 0
v 726 1
v 727 0
v 728 1
v 729 0
v 730 1
v 731 0
v 732 1
v 733 0
v 734 1
v 735 0
v 736 1
v 737 0
v 738 1
v 739 0
v 740 1
v 741 0
v 742 1
v 743 0
v 744 1
v 745 0
v 746 1
v 747 0
v 748 1
v 749 0
v 750 1
v 751 0
v 752 1
v 753 0
v 754 1
v 755 0
v 756 1
v 757 0
v 758 1
v 759 0
v 760 1
v 761 0
v 762 1
v 763 0
v 764 1
v 765 0
v 766 1
v 767 0
v 768 1
v 769 0
v 770 1
v 771 0
v 772 1
v 773 0
v 774 1
v 775 0
v 776 1
v 777 2
v 778 3
v 779 2
v 780 3
v 781 2
v 782 3
v 783 2
v 784 3
v 785 2
v 786 3
v 787 2
v 788 3
v 789 2
v 790 3
v 791 2
v 792 3
v 793 2
v 794 3
v 795 0
v 796 1
v 797 0
v 798 1
v 799 0
v 800 1
v 801 0
v 802 1
v 803 0
v 804 1
v 805 0
v 806 1
v 807 0
v 808 1
v 809 0
v 810 1
v 811 2
v 812 0
v 813 1
v 814 0
v 815 1
v 816 0
v 817 1
v 818 0
v 819 1
v 820 0
v 821 1
v 822 0
v 823 1
v 824 0
v 825 1
v 826 0
v 827 1
v 828 0
v 829 1
v 830 2
v 831 0
v 832 1
v 833 0
v 834 1
v 835 0
v 836 1
v 837 0
v 838 1
v 839 0
v 840 1
v 841 0
v 842 1
v 843 0
v 844 1
v 845 0
v 846 1
v 847 2
v 848 0
v 849 1
v 850 0
v 851 1
v 852 0
v 853 1
v 854 0
v 855 1
v 856 0
v 857 1
v 858 0
v 859 1
v 860 0
v 861 1
v 862 0
v 863 1
v 864 0
v 865 3
v 866 1
v 867 0
v 868 1
v 869 0
v 870 1
v 871 0
v 872 1
v 873 0
v 874 1
v 875 0
v 876 1
v 877 0
v 878 1
v 879 0
v 880 1
v 881 2
v 882 0
v 883 1
v 884 0
v 885 1
v 886 0
v 887 1
v 888 0
v 889 1
v 890 0
v 891 1
v 892 0
v 893 1
v 894 0
v 895 1
v 896 0
v 897 1
v 898 0
v 899 1
v 900 2
v 901 0
v 902 1
v 903 0
v 904 1
v 905 0
v 906 1
v 907 0
v 908 1
v 909 0
v 910 1
v 911 0
v 912 1
v 913 0
v 914 1
v 915 0
v 916 1
v 917 2
v 918 0
v 919 1
v 920 0
v 921 1
v 922 0
v 923 1
v 924 0
v 925 1
v 926 0
v 927 1
v 928 0
v 929 1
v 930 0
v 931 1
v 932 0
v 933 1
v 934 0
v 935 1
v 936 2
v 937 3
v 938 2
v 939 3
v 940 2
v 941 3
v 942 2
v 943 3
v 944 2
v 945 0
v 946 1
v 947 2
v 948 3
v 949 2
v 950 3
v 951 2
v 952 0
v 953 1
v 954 0
v 955 1
v 956 0
v 957 1
v 958 0
v 959 1
v 960 0
v 961 1
v 962 0
v 963 1
v 964 0
v 965 1
v 966 0
v 967 1
v 968 0
v 969 1
v 970 0
v 971 1
v 972 0
v 973 1
v 974 0
v 975 1
v 976 0
v 977 1
v 978 0
v 979 1
v 980 2
v 981 2
v 982 0
v 983 1
v 984 0
v 985 1
v 986 0
v 987 1
v 988 0
v 989 1
v 990 0
v 991 1
v 992 0
v 993 1
v 994 0
v 995 1
v 996 0
v 997 1
v 998 0
v 999 1
v 1000 0
v 1001 1
v 1002 0
v 1003 1
v 1004 0
v 1005 1
v 1006 0
v 1007 1
v 1008 0
v 1009 1
v 1010 0
v 1011 1
v 1012 0
v 1013 1
v 1014 0
v 1015 1
v 1016 0
v 1017 1
v 1018 0
v 1019 1
v 1020 0
v 1021 1
v 1022 0
v 1023 1
v 1024 0
v 1025 1
v 1026 0
v 1027 1
v 1028 0
v 1029 1
v 1030 0
v 1031 1
v 1032 0
v 1033 1
v 1034 0
v 1035 1
v 1036 0
v 1037 1
v 1038 0
v 1039 1
v 1040 0
v 1041 1
v 1042 0
v 1043 1
v 1044 0
v 1045 1
v 1046 0
v 1047 1
v 1048 0
v 1049 1
v 1050 0
v 1051 1
v 1052 0
v 1053 1
v 1054 0
v 1055 1
v 1056 0
v 1057 1
v 1058 2
v 1059 3
v 1060 2
v 1061 3
v 1062 2
v 1063 3
v 1064 2
v 1065 3
v 1066 2
v 1067 3
v 1068 2
v 1069 3
v 1070 2
v 1071 3
v 1072 2
v 1073 3
v 1074 2
v 1075 3
v 1076 4
v 1077 2
v 1078 3
v 1079 2
v 1080 3
v 1081 2
v 1082 3
v 1083 2
v 1084 3
v 1085 2
v 1086 0
v 1087 2
v 1088 0
v 1089 1
v 1090 0
v 1091 1
v 1092 2
v 1093 0
v 1094 1
v 1095 0
v 1096 1
v 1097 0
v 1098 1
v 1099 0
v 1100 1
v 1101 0
v 1102 1
v 1103 0
v 1104 1
v 1105 0
v 1106 1
v 1107 0
v 1108 1
v 1109 0
v 1110 1
v 1111 0
v 1112 1
v 1113 0
v 1114 1
v 1115 0
v 1116 1
v 1117 0
v 1118 1
v 1119 0
v 1120 1
v 1121 2
v 1122 1
v 1123 2
v 1124 0
v 1125 1
v 1126 0
v 1127 1
v 1128 2
v 1129 0
v 1130 1
v 1131 0
v 1132 1
v 1133 0
v 1134 1
v 1135 0
v 1136 1
v 1137 0
v 1138 1
v 1139 0
v 1140 1
v 1141 0
v 1142 1
v 1143 0
v 1144 1
v 1145 0
v 1146 1
v 1147 0
v 1148 1
v 1149 0
v 1150 1
v 1151 0
v 1152 1
v 1153 0
v 1154 1
v 1155 0
v 1156 1
v 1157 0
v 1158 1
v 1159 2
v 1160 0
v 1161 1
v 1162 2
v 1163 0
v 1164 1
v 1165 0
v 1166 1
v 1167 0
v 1168 1
v 1169 0
v 1170 1
v 1171 0
v 1172 1
v 1173 0
v 1174 1
v 1175 0
v 1176 1
v 1177 0
v 1178 1
v 1179 0
v 1180 1
v 1181 0
v 1182 1
v 1183 0
v 1184 1
v 1185 0
v 1186 1
v 1187 0
v 1188 1
v 1189 0
v 1190 1
v 1191 0
v 1192 1
v 1193 0
v 1194 1
v 1195 2
v 1196 3
v 1197 0
v 1198 1
v 1199 0
v 1200 1
v 1201 0
v 1202 1
v 1203 0
v 1204 1
v 1205 0
v 1206 1
v 1207 0
v 1208 1
v 1209 0
v 1210 1
v 1211 0
v 1212 1
v 1213 0
v 1214 1
v 1215 0
v 1216 1
v 1217 0
v 1218 1
v 1219 0
v 1220 1
v 1221 0
v 1222 1
v 1223 0
v 1224 1
v 1225 0
